
******************************************************************************
This program contains Ipopt, a library for large-scale nonlinear optimization.
 Ipopt is released as open source code under the Eclipse Public License (EPL).
         For more information visit http://projects.coin-or.org/Ipopt
******************************************************************************

This is Ipopt version 3.12.6, running with linear solver ma57.

Number of nonzeros in equality constraint Jacobian...:    16400
Number of nonzeros in inequality constraint Jacobian.:        0
Number of nonzeros in Lagrangian Hessian.............:     8610

Total number of variables............................:      610
                     variables with only lower bounds:       20
                variables with lower and upper bounds:        0
                     variables with only upper bounds:        0
Total number of equality constraints.................:      610
Total number of inequality constraints...............:        0
        inequality constraints with only lower bounds:        0
   inequality constraints with lower and upper bounds:        0
        inequality constraints with only upper bounds:        0

iter    objective    inf_pr   inf_du lg(mu)  ||d||  lg(rg) alpha_du alpha_pr  ls
   0  0.0000000e+00 9.50e-01 1.00e+00  -1.0 0.00e+00    -  0.00e+00 0.00e+00   0
Reallocating memory for MA57: lfact (802170)
Reallocating memory for MA57: lfact (1313284)
Reallocating memory for MA57: lfact (1658407)
   1  0.0000000e+00 8.35e-01 8.75e-01  -1.0 2.00e+01    -  1.00e+00 1.25e-01h  4
   2  0.0000000e+00 7.33e-01 4.16e-02  -1.7 1.86e+01    -  1.00e+00 1.25e-01h  4
   3  0.0000000e+00 6.44e-01 5.30e-02  -1.7 1.72e+01    -  1.00e+00 1.25e-01h  4
   4  0.0000000e+00 5.66e-01 4.28e-02  -1.7 1.59e+01    -  1.00e+00 1.25e-01h  4
   5  0.0000000e+00 4.97e-01 3.57e-02  -1.7 1.47e+01    -  1.00e+00 1.25e-01h  4
   6  0.0000000e+00 6.64e-01 2.58e-02  -1.7 1.36e+01    -  1.00e+00 2.50e-01h  3
   7  0.0000000e+00 7.35e-01 9.47e-03  -1.7 1.15e+01    -  1.00e+00 1.00e+00H  1
   8  0.0000000e+00 2.24e-02 5.89e-04  -1.7 8.27e-01    -  1.00e+00 1.00e+00h  1
   9  0.0000000e+00 5.34e-05 4.77e-05  -3.8 4.07e-02    -  1.00e+00 1.00e+00h  1
iter    objective    inf_pr   inf_du lg(mu)  ||d||  lg(rg) alpha_du alpha_pr  ls
  10  0.0000000e+00 1.02e-10 5.82e-10  -5.7 5.55e-05    -  1.00e+00 1.00e+00h  1

Number of Iterations....: 10

                                   (scaled)                 (unscaled)
Objective...............:   0.0000000000000000e+00    0.0000000000000000e+00
Dual infeasibility......:   0.0000000000000000e+00    0.0000000000000000e+00
Constraint violation....:   1.0162892749576713e-10    1.0162892749576713e-10
Complementarity.........:   0.0000000000000000e+00    0.0000000000000000e+00
Overall NLP error.......:   1.0162892749576713e-10    1.0162892749576713e-10


Number of objective function evaluations             = 54
Number of objective gradient evaluations             = 11
Number of equality constraint evaluations            = 54
Number of inequality constraint evaluations          = 0
Number of equality constraint Jacobian evaluations   = 11
Number of inequality constraint Jacobian evaluations = 0
Number of Lagrangian Hessian evaluations             = 10
Total CPU secs in IPOPT (w/o function evaluations)   =      0.800
Total CPU secs in NLP function evaluations           =      0.027

EXIT: Optimal Solution Found.

************************ CUTEst statistics ************************


 Package used            :  IPOPT
 Problem                 :  QR3D      
 # variables             =             610
 # constraints           =             610
 # objective functions   =        0.6600000E+02
 # objective gradients   =        0.1200000E+02
 # objective Hessians    =        0.1100000E+02
 # Hessian-vector prdct  =        0.0000000E+00
 # constraints functions =        0.6700000E+02
 # constraints gradients =        0.1300000E+02
 # constraints Hessians  =        0.1100000E+02
 Exit code               =               0
 Final f                 =   0.0000000E+00
 Set up time             =            0.04 seconds
 Solve time              =            2.32 seconds


******************************************************************

System Time =       0.5799999833 s.
